c 45 Maven
c 19 Hibernate2ndLvlCache
c 4 Server
c 41 PostgreSQL
c 50 False
c 3 ServerApp
c 7 ElasticSearch
c 42 MySql
c 2 Production
c 15 MySQL
c 24 Development
c 20 Database
c 18 EhCache
c 14 Client
c 16 JWT
c 48 HTTPSession
c 37 DiskBased
c 8 SQL
c 23 Libsass
c 49 Uaa
c 36 Oracle12c
c 35 MicroserviceApplication
c 11 TestingFrameworks
c 46 MongoDB
c 25 MariaDBDev
c 6 Application
c 31 Cucumber
c 38 ClusteredSession
c 9 Generator
c 10 Gatling
c 44 Cassandra
c 13 BackEnd
c 33 Oracle
c 40 OAuth2
c 43 jhipster
c 5 MicroserviceGateway
c 34 SocialLogin
c 21 InternationalizationSupport
c 1 MariaDB
c 29 H2
c 28 InMemory
c 22 Base
c 32 Monolithic
c 30 HazelCast
c 17 Authentication
c 26 UaaServer
c 47 SpringWebSockets
c 39 PostgreSQLDev
c 27 Protractor
c 12 Gradle
p cnf 50 526
-1 2 0
-1 2 0
-3 4 0
-5 6 0
-7 8 0
-4 9 0
-10 11 0
-12 13 0
-14 9 0
-15 2 0
-3 4 0
-16 17 0
-18 19 0
-8 20 0
-2 8 0
-21 22 0
-6 9 0
-3 4 0
-23 22 0
-24 8 0
-1 2 0
-25 24 0
-26 4 0
-27 11 0
-28 29 0
-30 19 0
-21 22 0
-31 11 0
-14 9 0
-32 6 0
-1 2 0
-28 29 0
-3 4 0
-7 8 0
-33 2 0
-33 2 0
-28 29 0
-10 11 0
-34 22 0
-35 4 0
-36 24 0
-23 22 0
-18 19 0
-37 29 0
-26 4 0
-26 4 0
-37 29 0
-26 4 0
-28 29 0
-35 4 0
-35 4 0
-38 22 0
-38 22 0
-28 29 0
-37 29 0
-39 24 0
-17 22 0
-13 22 0
-9 22 0
-11 22 0
-11 22 0
-40 17 0
-4 9 0
-41 2 0
-1 2 0
-25 24 0
-42 24 0
-40 17 0
-6 9 0
-41 2 0
-25 24 0
-39 24 0
-15 2 0
-15 2 0
-29 24 0
-22 43 0
-42 24 0
-44 20 0
-24 8 0
-30 19 0
-35 4 0
-25 24 0
-45 13 0
-1 2 0
-4 9 0
-32 6 0
-46 20 0
-15 2 0
-35 4 0
-19 8 0
-37 29 0
-24 8 0
-37 29 0
-26 4 0
-21 22 0
-41 2 0
-25 24 0
-41 2 0
-32 6 0
-28 29 0
-10 11 0
-39 24 0
-37 29 0
-36 24 0
-39 24 0
-15 2 0
-5 6 0
-37 29 0
-32 6 0
-33 2 0
-29 24 0
-15 2 0
-35 4 0
-32 6 0
-12 13 0
-29 24 0
-10 11 0
-1 2 0
-35 4 0
-37 29 0
-25 24 0
-42 24 0
-32 6 0
-34 22 0
-5 6 0
-40 17 0
-37 29 0
-26 4 0
-41 2 0
-1 2 0
-35 4 0
-37 29 0
-18 19 0
-2 8 0
-29 24 0
-25 24 0
-36 24 0
-28 29 0
-37 29 0
-42 24 0
-33 2 0
-5 6 0
-17 22 0
-34 22 0
-26 4 0
-33 2 0
-25 24 0
-15 2 0
-42 24 0
-21 22 0
-1 2 0
-42 24 0
-37 29 0
-42 24 0
-32 6 0
-37 29 0
-25 24 0
-37 29 0
-46 20 0
-15 2 0
-39 24 0
-41 2 0
-8 20 0
-25 24 0
-33 2 0
-2 8 0
-22 43 0
-26 4 0
-47 22 0
-39 24 0
-2 8 0
-39 24 0
-42 24 0
-46 20 0
-2 8 0
-7 8 0
-28 29 0
-8 20 0
-19 8 0
-48 17 0
-1 2 0
-41 2 0
-41 2 0
-3 4 0
-32 6 0
-29 24 0
-37 29 0
-18 19 0
-20 22 0
-28 29 0
-37 29 0
-26 4 0
-5 6 0
-36 24 0
-27 11 0
-18 19 0
-32 6 0
-44 20 0
-36 24 0
-30 19 0
-20 22 0
-16 17 0
-36 24 0
-28 29 0
-19 8 0
-3 4 0
-14 9 0
-47 22 0
-13 22 0
-37 29 0
-29 24 0
-6 9 0
-15 2 0
-15 2 0
-28 29 0
-28 29 0
-15 2 0
-41 2 0
-19 8 0
-28 29 0
-29 24 0
-6 9 0
-41 2 0
-48 17 0
-3 4 0
-27 11 0
-29 24 0
-28 29 0
-45 13 0
-5 6 0
-40 17 0
-39 24 0
-17 22 0
-5 6 0
-29 24 0
-18 19 0
-48 17 0
-42 24 0
-35 4 0
-49 17 0
-26 4 0
-28 29 0
-1 2 0
-29 24 0
-42 24 0
-28 29 0
-42 24 0
-41 2 0
-31 11 0
-29 24 0
-13 22 0
-3 4 0
-37 29 0
-37 29 0
-3 4 0
-28 29 0
-42 24 0
-28 29 0
-5 6 0
-7 8 0
-3 4 0
-44 20 0
-31 11 0
-3 4 0
-4 9 0
-49 17 0
-13 22 0
-33 2 0
-45 13 0
-15 2 0
-2 8 0
-1 2 0
-28 29 0
-37 29 0
-33 2 0
-31 11 0
-37 29 0
-32 6 0
-45 13 0
-32 6 0
-23 22 0
-39 24 0
-19 8 0
-4 9 0
-14 9 0
-24 8 0
-24 8 0
-15 2 0
-34 22 0
-42 24 0
-39 24 0
-33 2 0
-14 9 0
-15 2 0
-36 24 0
-4 9 0
-6 9 0
-39 24 0
-30 19 0
-5 6 0
-12 13 0
-7 8 0
-4 9 0
-5 6 0
-28 29 0
-5 6 0
-36 24 0
-12 13 0
-35 4 0
-35 4 0
-37 29 0
-9 22 0
-29 24 0
-1 2 0
-5 6 0
-35 4 0
-28 29 0
-36 24 0
-9 22 0
-1 2 0
-41 2 0
-37 29 0
-24 8 0
-26 4 0
-8 20 0
-15 2 0
-47 22 0
-32 6 0
-6 9 0
-32 6 0
-29 24 0
-36 24 0
-33 2 0
-42 24 0
-35 4 0
-37 29 0
-7 8 0
-38 22 0
-20 22 0
-41 2 0
-33 2 0
-30 19 0
-29 24 0
-11 22 0
-49 17 0
-7 8 0
-7 8 0
-6 9 0
-25 24 0
-26 4 0
-36 24 0
-39 24 0
-41 2 0
-1 2 0
-39 24 0
-3 4 0
-26 4 0
-23 22 0
-33 2 0
-28 29 0
-41 2 0
-28 29 0
-3 4 0
-28 29 0
-20 22 0
-5 6 0
-33 2 0
-24 8 0
-4 9 0
-26 4 0
-32 6 0
-30 19 0
-26 4 0
-6 9 0
-32 6 0
-15 2 0
-28 29 0
-26 4 0
-37 29 0
-33 2 0
-2 8 0
-36 24 0
-33 2 0
-28 29 0
-3 4 0
-28 29 0
-25 24 0
-36 24 0
-3 4 0
-5 6 0
-48 17 0
-39 24 0
-44 20 0
-36 24 0
-35 4 0
-24 8 0
-5 6 0
-5 6 0
-37 29 0
-28 29 0
-32 6 0
-2 8 0
-37 29 0
-27 11 0
-28 29 0
-30 19 0
-29 24 0
-28 29 0
-37 29 0
-36 24 0
-37 29 0
-30 19 0
-38 22 0
-49 17 0
-29 24 0
-19 8 0
-18 19 0
-1 2 0
-37 29 0
-42 24 0
-28 29 0
-28 29 0
-17 22 0
-19 8 0
-3 4 0
-14 9 0
-37 29 0
-42 24 0
-25 24 0
-41 2 0
-16 17 0
-25 24 0
-9 22 0
-25 24 0
-18 19 0
-35 4 0
-33 2 0
-36 24 0
-46 20 0
-19 8 0
-25 24 0
-14 9 0
-39 24 0
-39 24 0
-14 9 0
-16 17 0
-35 4 0
-47 22 0
-37 29 0
-11 22 0
43 0
-43 22 0
-8 24 0
-4 35 26 3 0
-35 -3 0
-26 -3 0
-35 -26 0
-17 48 49 40 16 0
-48 -40 0
-49 -16 0
-48 -49 0
-48 -16 0
-40 -16 0
-49 -40 0
-13 12 45 0
-12 -45 0
-22 9 0
-29 37 28 0
-37 -28 0
-2 15 33 1 41 0
-15 -33 0
-15 -1 0
-15 -41 0
-33 -41 0
-33 -1 0
-1 -41 0
-9 4 6 14 0
-4 -14 0
-4 -6 0
-6 -14 0
-24 36 29 39 25 42 0
-39 -42 0
-25 -42 0
-36 -39 0
-36 -42 0
-39 -25 0
-29 -42 0
-36 -25 0
-36 -29 0
-29 -39 0
-29 -25 0
-6 5 32 0
-5 -32 0
50 43 0
-8 2 0
-19 30 18 0
-30 -18 0
-20 8 44 46 0
-44 -46 0
-8 -46 0
-8 -44 0
-40 34 35 8 46 0
-34 48 16 0
-34 3 32 0
-34 8 46 0
-26 49 0
-33 29 36 0
40 34 35 8 46 44 0
-4 -27 0
-15 29 42 0
-35 16 49 0
-5 16 49 0
-32 16 48 40 0
-1 29 25 0
-41 29 39 0
-4 13 0
-4 17 0
-6 13 0
-6 17 0
-47 6 0
-38 6 0
-14 -10 0
-14 -31 0
-14 -13 0
-14 -17 0
-23 6 14 0
